NAME 
ROWS
 N  OBJ
 L  R0      
 L  R1      
 L  R2      
 E  R3      
 E  R4      
 E  R5      
 E  R6      
 E  R7      
 E  R8      
 E  R9      
 E  R10     
 E  R11     
 E  R12     
COLUMNS
    MARKER    'MARKER'                 'INTORG'
    I0(8)     OBJ       142
    I0(8)     R0        134
    I0(8)     R1        113
    I0(8)     R2        164
    I0(8)     R3        14
    I0(8)     R4        13
    I0(8)     R6        6
    I0(8)     R8        10
    I0(8)     R12       1
    I1(6)     OBJ       -101
    I1(6)     R0        -69
    I1(6)     R1        -60
    I1(6)     R2        -122
    I1(6)     R5        7
    I1(6)     R6        16
    I1(6)     R12       1
    I2(7)     OBJ       -133
    I2(7)     R0        -97
    I2(7)     R1        -126
    I2(7)     R2        142
    I2(7)     R4        9
    I2(7)     R5        2
    I2(7)     R7        19
    I2(7)     R12       1
    I3(7)     OBJ       137
    I3(7)     R0        -152
    I3(7)     R1        -60
    I3(7)     R2        -153
    I3(7)     R4        12
    I3(7)     R7        4
    I3(7)     R8        18
    I3(7)     R12       1
    I4(7)     OBJ       -110
    I4(7)     R0        128
    I4(7)     R1        74
    I4(7)     R2        -79
    I4(7)     R3        9
    I4(7)     R4        6
    I4(7)     R5        14
    I4(7)     R12       1
    I5(8)     OBJ       -150
    I5(8)     R0        -138
    I5(8)     R1        118
    I5(8)     R2        -91
    I5(8)     R3        8
    I5(8)     R4        18
    I5(8)     R5        19
    I5(8)     R7        8
    I5(8)     R12       1
    MARKER    'MARKER'                 'INTEND'
    C6(9)     OBJ       -2
    C6(9)     R0        -4
    C6(9)     R1        -10
    C6(9)     R2        -9
    C6(9)     R3        10
    C6(9)     R6        2
    C6(9)     R7        11
    C6(9)     R9        5
    C6(9)     R10       17
    C6(9)     R11       17
    C7(11)    OBJ       -6
    C7(11)    R0        2
    C7(11)    R1        -5
    C7(11)    R2        9
    C7(11)    R4        10
    C7(11)    R5        14
    C7(11)    R6        9
    C7(11)    R7        1
    C7(11)    R8        7
    C7(11)    R9        13
    C7(11)    R10       15
    C7(11)    R11       9
    C8(10)    OBJ       -8
    C8(10)    R0        -4
    C8(10)    R1        -1
    C8(10)    R2        -1
    C8(10)    R3        6
    C8(10)    R4        1
    C8(10)    R5        19
    C8(10)    R8        11
    C8(10)    R9        5
    C8(10)    R10       1
    C8(10)    R11       13
    C9(7)     OBJ       -8
    C9(7)     R0        -9
    C9(7)     R1        -2
    C9(7)     R2        4
    C9(7)     R4        15
    C9(7)     R6        -1
    C9(7)     R7        -1
    C9(7)     R10       1
    C10(1)    R3        1
    C11(1)    R4        1
    C12(1)    R5        1
    C13(1)    R6        1
    C14(1)    R7        1
    C15(1)    R8        1
    C16(1)    R9        1
    C17(1)    R10       1
    C18(1)    R11       1
    C19(1)    R12       1
RHS
    RHS1      R0        -3.0814117647058822e+02
    RHS1      R1        1.9004705882352943e+02
    RHS1      R2        -2.1891764705882352e+02
    RHS1      R3        80
    RHS1      R4        50
    RHS1      R5        76
    RHS1      R6        85
    RHS1      R7        75
    RHS1      R8        69
    RHS1      R9        64
    RHS1      R10       87
    RHS1      R11       98
    RHS1      R12       2
BOUNDS
 UP BND1      I0(8)     2
 UP BND1      I1(6)     2
 UP BND1      I2(7)     2
 UP BND1      I3(7)     2
 UP BND1      I4(7)     2
 UP BND1      I5(8)     2
ENDATA
